88 10 88 88 10 10 10 88 10 88 10 10 88 10 88 88 10 88 10 10 88 10 88 10 10 88 10 10 88 10 10 10 10 88 88 88 88 10 10 88 88 10 88 10 10 88 88 10 10 88 88 88 88 10 88 88 88 88 88 10 88 10 88 10 88 10 88 88 10 88 10 88 10 10 88 10 88 88 88 88 10 10 10 10 10 88 88 10 10 88 10 88 88 88 88 10 10 10 88 10 10 10 10 10 10 88 10 88 10 88 10 88 88 10 88 10 88 10 10 88 88 10 10 10 10 10 88 10 10 10 10 10 10 10 10 10 10 88 88 10 10 88 88 10 88 10 10 10 88 10 88 10 10 10 88 10 10 10 10 10 10 88 88 88 88 88 88 88 10 88 10 88 10 88 88 10 10 88 10 88 88 10 88 88 10 10 10 10 10 10 10 88 88 88 10 88 88 88 10 88 10 10 10 88 10 88 88 10 10 88 88 88 88 10 88 88 88 88 88 88 88 10 10 88 88 10 10 10 10 10 10 10 88 10 88 88 10 10 88 10 10 10 10 88 10 88 88 88 10 10 88 88 10 88 10 10 10 10 10 10 88 10 10 10 88 10 88 88 10 10 88 10 10 88 10 10 10 88 10 10 88 88 10 10 10 10 10 10 88 10 10 10 88 88 10 10 88 88 88 88 88 10 10 88 10 10 88 10 88 88 88 10 10 88 10 88 88 10 88 10 88 10 10 10 88 10 10 10 88 88 88 10 88 88 88 88 88 88 10 10 10 88 88 88 10 88 10 88 10 88 10 88 88 10 88 10 88 88 10 10 10 10 88 88 88 10 88 88 88 88 88 10 10 10 88 10 10 88 88 10 10 88 88 10 10 10 10 88 88 88 88 88 88 10 10 10 88 88 88 10 10 88 10 10 88 88 10 88 10 10 88 88 88 10 88 88 10 88 10 88 10 10 10 88 10 88 10 88 10 88 10 88 10 10 88 10 10 10 88 10 10 88 88 88 88 10 88 10 10 88 88 10 88 10 10 10 88 10 88 88 88 88 10 10 10 10 10 10 10 88 10 10 10 10 88 10 10 10 10 10 10 88 88 88 88 88 88 10 88 88 10 10 10 10 10 10 10 10 10 10 10 88 10 10 88 10 10 88 10 10 10 10 10 88 10 88 10 88 10 88 10 10 88 88 10 10 88 88 10 10 88 10 88 10 88 10 10 88 88 10 10 88 88 10 10 88 88 10 10 88 88 88 88 88 10 10 88 88 88 88 88 10 10 10 10 88 10 10 10 10 88 10 88 10 10 10 88 10 10 88 88 10 10 88 88 10 88 10 10 10 88 88 10 88 10 88 10 10 88 88 10 10 88 10 10 10 10 88 10 10 88 88 10 88 10 88 10 88 88 10 88 88 88 10 10 88 88 88 10 10 10 10 88 88 10 88 88 10 88 88 88 10 88 88 88 88 88 88 88 10 88 10 88 88 10 10 10 88 88 10 10 88 88 88 10 88 10 10 10 88 88 88 88 10 10 88 10 88 10 88 10 10 88 88 88 10 88 88 88 10 10 88 88 88 10 10 10 88 10 10 10 88 88 10 10 10 88 10 88 88 88 88 88 10 88 10 10 10 10 10 88 10 88 10 88 10 10 88 88 10 10 88 10 88 88 10 88 10 10 88 10 88 10 88 88 88 10 10 10 10 10 88 10 88 88 88 88 10 10 10 10 10 10 10 10 88 10 88 10 10 10 10 88 88 88 88 10 88 88 10 88 88 88 88 10 88 10 10 88 88 10 88 88 10 10 88 10 10 88 10 88 88 10 10 10 88 88 88 88 10 88 10 88 88 10 10 10 10 10 88 88 10 10 88 88 10 10 88 88 88 88 10 88 88 10 88 10 10 10 88 10 10 10 10 88 10 10 88 10 10 10 10 10 10 88 88 88 88 10 10 88 88 10 10 10 10 88 88 10 10 10 88 10 10 88 88 10 88 10 88 88 10 88 88 10 10 88 88 88 88 88 10 88 88 10 88 10 10 10 10 10 88 88 10 88 10 88 10 88 88 88 10 88 10 10 88 10 88 88 88 10 10 10 88 10 10 88 10 10 88 10 10 10 10 10 10 10 88 10 10 10 88 10 88 88 10 88 88 88 10 10 10 10 10 88 10 88 10 10 88 10 88 10 10 88 10 10 88 10 10 88 10 88 10 10 10 10 88 88 10 88 10 10 88 10 88 10 88 10 10 88 10 88 88 10 10 88 88 10 88 